    20
 esp_fit:geometry
 C                    -0.22642744    -4.18158748     0.00000000
 C                     0.51285909    -2.84988458     0.00000000
 C                    -0.42909240    -1.65117557     0.00000000
 C                     0.30578375    -0.31675101     0.00000000
 C                    -0.64299344     0.87095002     0.00000000
 C                     0.07133171     2.20555063     0.00000000
 O                    -0.74530466     3.29562408     0.00000000
 O                     1.26036543     2.35276159     0.00000000
 H                     0.46657461    -5.02569424     0.00000000
 H                    -0.86596930    -4.27513047    -0.88232260
 H                    -0.86596930    -4.27513047     0.88232260
 H                     1.16929612    -2.78984788    -0.87610305
 H                     1.16929612    -2.78984788     0.87610305
 H                    -1.08752801    -1.70923010     0.87726026
 H                    -1.08752801    -1.70923010    -0.87726026
 H                     0.96213226    -0.24761147    -0.87311615
 H                     0.96213226    -0.24761147     0.87311615
 H                    -1.30440401     0.83659095     0.87638228
 H                    -1.30440401     0.83659095    -0.87638228
 H                    -1.66886084     3.00935802     0.00000000
