    19
 esp_fit:geometry
 C                    -0.20759171    -4.15956534     0.00000000
 C                     0.51256777    -2.81562556     0.00000000
 C                    -0.43682674    -1.62123597     0.00000000
 C                     0.27369247    -0.27106817     0.00000000
 C                    -0.67002687     0.92091782     0.00000000
 C                     0.02633266     2.32501596     0.00000000
 O                     1.27963818     2.32244104     0.00000000
 O                    -0.76443321     3.29543556     0.00000000
 H                     0.49084784    -5.00237589     0.00000000
 H                    -0.84947788    -4.25766333    -0.88140290
 H                    -0.84947788    -4.25766333     0.88140290
 H                     1.17040449    -2.74903430    -0.87564905
 H                     1.17040449    -2.74903430     0.87564905
 H                    -1.09762047    -1.68905977     0.87668459
 H                    -1.09762047    -1.68905977    -0.87668459
 H                     0.93706474    -0.19854717    -0.86978056
 H                     0.93706474    -0.19854717     0.86978056
 H                    -1.33386313     0.88364696     0.87453828
 H                    -1.33386313     0.88364696    -0.87453828
