   101
 esp_fit:geometry
 C                     7.87257375    -2.18439701     3.05892144
 C                     6.68527508    -1.49059806     3.71334313
 C                     5.54784205    -1.22023525     2.73470921
 C                     4.35318274    -0.52748136     3.37861436
 C                     3.21991383    -0.24873305     2.39745733
 C                     2.02061144     0.42362919     3.06089772
 C                     0.93877822     0.90087779     2.08640037
 C                     0.37142840    -0.27848015     1.31208319
 N                    -0.85088763    -0.01267231     0.44255710
 C                    -0.80141562     1.36337907    -0.19377243
 C                     0.35703232     1.62023743    -1.14485131
 C                     0.52253277     3.12423250    -1.36318502
 C                     1.62496856     3.45431376    -2.36202080
 C                     1.80965814     4.95295076    -2.56856808
 C                     2.91128236     5.28747393    -3.56694597
 C                     3.09926827     6.78608637    -3.77474530
 C                     4.20224852     7.10797488    -4.77437978
 C                    -0.88301965    -1.03776236    -0.68759487
 C                    -0.90609376    -2.50474392    -0.29871217
 C                    -0.75236479    -3.36429079    -1.55611046
 C                    -0.80672791    -4.85704262    -1.25217236
 C                    -0.64060382    -5.72045246    -2.49708449
 C                    -0.69468014    -7.21418472    -2.20016188
 C                    -0.52740313    -8.07996145    -3.44389093
 C                    -0.58301597    -9.57035303    -3.13555540
 C                    -2.14518174    -0.17114214     1.23579836
 C                    -2.31966715     0.56065537     2.56030599
 C                    -2.58680142     2.06903344     2.56190246
 C                    -3.72468383     2.52730682     1.64935990
 C                    -5.07042895     1.86930443     1.93962545
 C                    -6.20462479     2.44895461     1.10211791
 C                    -7.55094806     1.78545450     1.36912289
 C                    -8.67554985     2.37779238     0.53025947
 H                     8.67421593    -2.36723963     3.77684038
 H                     8.28389988    -1.57715314     2.24794031
 H                     7.57909543    -3.14860095     2.63470930
 H                     7.00926039    -0.54220912     4.15792033
 H                     6.30868385    -2.10242379     4.54167663
 H                     5.22190693    -2.16887126     2.28758533
 H                     5.92176355    -0.60547668     1.90534466
 H                     4.67849470     0.41785324     3.83036709
 H                     3.97428695    -1.14452540     4.20330956
 H                     2.92097279    -1.19674254     1.93186300
 H                     3.59199580     0.39093826     1.58512585
 H                     2.36773450     1.29506268     3.62478511
 H                     1.57594714    -0.25710485     3.79751384
 H                     1.37869808     1.62925945     1.39889919
 H                     0.15958091     1.42072529     2.64454807
 H                     0.08176158    -1.07884899     1.99604719
 H                     1.13254797    -0.67961267     0.64311119
 H                    -0.78280536     2.07539682     0.62734112
 H                    -1.75429878     1.48102421    -0.71300906
 H                     0.18141421     1.13807076    -2.11033101
 H                     1.29247658     1.21018110    -0.75029184
 H                     0.74093686     3.60753342    -0.40227667
 H                    -0.42695115     3.54978805    -1.71138264
 H                     1.39835737     2.97848648    -3.32430347
 H                     2.56976746     3.01411130    -2.01770184
 H                     2.03550335     5.42753125    -1.60494917
 H                     0.86338860     5.39151418    -2.91018870
 H                     2.68501689     4.81313431    -4.53071182
 H                     3.85740976     4.84701847    -3.22615202
 H                     3.32416954     7.25724156    -2.81036879
 H                     2.15261234     7.22324052    -4.11411018
 H                     5.16327339     6.70678173    -4.44108529
 H                     4.31950890     8.18506385    -4.90777687
 H                     3.98374427     6.67272325    -5.75332659
 H                     0.00661482    -0.83717555    -1.28339350
 H                    -1.75814977    -0.78325860    -1.29138744
 H                    -1.84230336    -2.77647115     0.19597241
 H                    -0.09163159    -2.74066268     0.39245519
 H                     0.19929457    -3.12563043    -2.04652781
 H                    -1.54228493    -3.10919277    -2.27327178
 H                    -1.76199982    -5.09526294    -0.76781727
 H                    -0.02324025    -5.10886952    -0.52617296
 H                     0.31472937    -5.48010738    -2.98099680
 H                    -1.42312899    -5.46521958    -3.22306171
 H                    -1.65031333    -7.45474965    -1.71644025
 H                     0.08697794    -7.46928886    -1.47274349
 H                     0.42733240    -7.83659114    -3.92533139
 H                    -1.30874322    -7.82217266    -4.16881361
 H                     0.20754111    -9.85614910    -2.43631131
 H                    -0.46113810   -10.17066568    -4.03912843
 H                    -1.54005490    -9.84169011    -2.68168843
 H                    -2.20972949    -1.23883032     1.43623635
 H                    -2.94298101     0.08762803     0.53598412
 H                    -1.50039343     0.31200082     3.24016139
 H                    -3.19549375     0.06861092     2.99753182
 H                    -1.67849305     2.63413962     2.32894321
 H                    -2.83569936     2.34118205     3.59324862
 H                    -3.46465941     2.36660841     0.59493463
 H                    -3.83022938     3.61189520     1.75748983
 H                    -5.30670411     1.98484150     3.00533904
 H                    -5.01768394     0.78736148     1.75866944
 H                    -5.95713796     2.35241940     0.03618973
 H                    -6.28411954     3.52563728     1.29742501
 H                    -7.79304695     1.88167069     2.43406737
 H                    -7.46831645     0.70953495     1.17150591
 H                    -8.79725451     3.44459031     0.73542539
 H                    -9.62893650     1.88847370     0.73744978
 H                    -8.46928820     2.26769388    -0.53796547
