    10
 esp_fit:geometry
 O                    -0.50977097    -1.36211083    -0.22471350
 C                     0.65277418    -0.69161537     0.26955470
 C                     0.59839527     0.71071142    -0.28678198
 O                    -0.56316946     1.39279450     0.15230938
 H                    -0.63394148    -2.17365605     0.27717213
 H                     1.57099306    -1.19672704    -0.06194113
 H                     0.64060437    -0.65210671     1.36640777
 H                     0.63672278     0.66290985    -1.38543005
 H                     1.46042598     1.28444019     0.06190603
 H                    -1.30018050     0.79535136    -0.03198310
