    21
 esp_fit:geometry
 C                     0.28527379    -2.10728729    -0.71322895
 N                    -0.06691350    -0.80295328    -0.06387578
 C                    -1.54981465    -0.58965856    -0.20074439
 C                     0.29057508    -0.86473272     1.38766719
 C                     0.70643874     0.29886670    -0.78101707
 C                     0.84669609     1.60483459    -0.03354313
 O                    -0.43796439     2.11170916     0.27146990
 H                    -0.33199183    -2.89055321    -0.27751112
 H                     1.33861662    -2.31706874    -0.53738619
 H                     0.09009102    -2.02911329    -1.78131327
 H                    -2.05509856    -1.39807729     0.32475165
 H                    -1.80313350    -0.61624108    -1.25886139
 H                    -1.80210350     0.37640973     0.22389773
 H                    -0.19688462    -1.73651417     1.81994301
 H                    -0.06432511     0.04058479     1.87429686
 H                     1.37106940    -0.95819685     1.48354495
 H                     0.19298152     0.44764688    -1.73207737
 H                     1.70354982    -0.10006679    -0.97519383
 H                     1.40232312     2.27064004    -0.70639693
 H                     1.45494018     1.47546117     0.87082236
 H                    -0.35505006     3.01505967     0.59998452
